\Problem name: compact

Minimize
OBJROW: C
Subject To
ord(0,1):  - x(0,0) + x(0,3) >= 10
ord(0,2):  x(0,2) - x(0,3) >= 1
ord(0,3):  x(0,1) - x(0,2) >= 6
ord(1,1):  - x(1,0) + x(1,3) >= 1
ord(1,2):  x(1,1) - x(1,3) >= 7
ord(1,3):  - x(1,1) + x(1,2) >= 5
ord(2,1):  x(2,2) - x(2,3) >= 9
ord(2,2):  x(2,1) - x(2,2) >= 3
ord(2,3):  x(2,0) - x(2,1) >= 7
ord(3,1):  - x(3,1) + x(3,3) >= 7
ord(3,2):  x(3,0) - x(3,3) >= 3
ord(3,3):  - x(3,0) + x(3,2) >= 9
triangle2(0,1,0):  y(0,1,0) + y(1,0,0) = 1
triangle2(0,1,1):  y(0,1,1) + y(1,0,1) = 1
triangle2(0,1,2):  y(0,1,2) + y(1,0,2) = 1
triangle2(0,1,3):  y(0,1,3) + y(1,0,3) = 1
triangle2(0,2,0):  y(0,2,0) + y(2,0,0) = 1
triangle2(0,2,1):  y(0,2,1) + y(2,0,1) = 1
triangle2(0,2,2):  y(0,2,2) + y(2,0,2) = 1
triangle2(0,2,3):  y(0,2,3) + y(2,0,3) = 1
triangle2(0,3,0):  y(0,3,0) + y(3,0,0) = 1
triangle2(0,3,1):  y(0,3,1) + y(3,0,1) = 1
triangle2(0,3,2):  y(0,3,2) + y(3,0,2) = 1
triangle2(0,3,3):  y(0,3,3) + y(3,0,3) = 1
triangle2(1,2,0):  y(1,2,0) + y(2,1,0) = 1
triangle2(1,2,1):  y(1,2,1) + y(2,1,1) = 1
triangle2(1,2,2):  y(1,2,2) + y(2,1,2) = 1
triangle2(1,2,3):  y(1,2,3) + y(2,1,3) = 1
triangle2(1,3,0):  y(1,3,0) + y(3,1,0) = 1
triangle2(1,3,1):  y(1,3,1) + y(3,1,1) = 1
triangle2(1,3,2):  y(1,3,2) + y(3,1,2) = 1
triangle2(1,3,3):  y(1,3,3) + y(3,1,3) = 1
triangle2(2,3,0):  y(2,3,0) + y(3,2,0) = 1
triangle2(2,3,1):  y(2,3,1) + y(3,2,1) = 1
triangle2(2,3,2):  y(2,3,2) + y(3,2,2) = 1
triangle2(2,3,3):  y(2,3,3) + y(3,2,3) = 1
MCLinV(0,1,0):  - x(0,0) + v(0,1,0)p - v(0,1,0)n + x(1,0) = -1
MCLinV(1,0,0):  x(0,0) + v(1,0,0)p - v(1,0,0)n - x(1,0) = -10
MCLin1(0,1,0):  u(0,1,0)p - u(0,1,0)n >= 0
MCLin2(0,1,0):  74 y(1,0,0) + u(0,1,0)p - u(0,1,0)n >= 0
MCLin3(0,1,0):  -69 y(1,0,0) - v(0,1,0)p + v(0,1,0)n + u(0,1,0)p - u(0,1,0)n >= -69
MCLin4(0,1,0):  -69 y(1,0,0) + u(0,1,0)p - u(0,1,0)n <= 0
MCLin5(0,1,0):  74 y(1,0,0) - v(0,1,0)p + v(0,1,0)n + u(0,1,0)p - u(0,1,0)n <= 74
MCLin6(1,0,0):  u(1,0,0)p - u(1,0,0)n >= 0
MCLin7(1,0,0):  80 y(0,1,0) + u(1,0,0)p - u(1,0,0)n >= 0
MCLin8(1,0,0):  -63 y(0,1,0) - v(1,0,0)p + v(1,0,0)n + u(1,0,0)p - u(1,0,0)n >= -63
MCLin9(1,0,0):  -63 y(0,1,0) + u(1,0,0)p - u(1,0,0)n <= 0
MCLin10(1,0,0):  80 y(0,1,0) - v(1,0,0)p + v(1,0,0)n + u(1,0,0)p - u(1,0,0)n <= 80
MCLinV(0,1,1):  - x(0,1) + v(0,1,1)p - v(0,1,1)n + x(1,1) = -5
MCLinV(1,0,1):  x(0,1) + v(1,0,1)p - v(1,0,1)n - x(1,1) = -7
MCLin1(0,1,1):  u(0,1,1)p - u(0,1,1)n >= 0
MCLin2(0,1,1):  69 y(1,0,1) + u(0,1,1)p - u(0,1,1)n >= 0
MCLin3(0,1,1):  -74 y(1,0,1) - v(0,1,1)p + v(0,1,1)n + u(0,1,1)p - u(0,1,1)n >= -74
MCLin4(0,1,1):  -74 y(1,0,1) + u(0,1,1)p - u(0,1,1)n <= 0
MCLin5(0,1,1):  69 y(1,0,1) - v(0,1,1)p + v(0,1,1)n + u(0,1,1)p - u(0,1,1)n <= 69
MCLin6(1,0,1):  u(1,0,1)p - u(1,0,1)n >= 0
MCLin7(1,0,1):  86 y(0,1,1) + u(1,0,1)p - u(1,0,1)n >= 0
MCLin8(1,0,1):  -57 y(0,1,1) - v(1,0,1)p + v(1,0,1)n + u(1,0,1)p - u(1,0,1)n >= -57
MCLin9(1,0,1):  -57 y(0,1,1) + u(1,0,1)p - u(1,0,1)n <= 0
MCLin10(1,0,1):  86 y(0,1,1) - v(1,0,1)p + v(1,0,1)n + u(1,0,1)p - u(1,0,1)n <= 86
MCLinV(0,1,2):  - x(0,2) + v(0,1,2)p - v(0,1,2)n + x(1,2) = -8
MCLinV(1,0,2):  x(0,2) + v(1,0,2)p - v(1,0,2)n - x(1,2) = -6
MCLin1(0,1,2):  u(0,1,2)p - u(0,1,2)n >= 0
MCLin2(0,1,2):  83 y(1,0,2) + u(0,1,2)p - u(0,1,2)n >= 0
MCLin3(0,1,2):  -60 y(1,0,2) - v(0,1,2)p + v(0,1,2)n + u(0,1,2)p - u(0,1,2)n >= -60
MCLin4(0,1,2):  -60 y(1,0,2) + u(0,1,2)p - u(0,1,2)n <= 0
MCLin5(0,1,2):  83 y(1,0,2) - v(0,1,2)p + v(0,1,2)n + u(0,1,2)p - u(0,1,2)n <= 83
MCLin6(1,0,2):  u(1,0,2)p - u(1,0,2)n >= 0
MCLin7(1,0,2):  74 y(0,1,2) + u(1,0,2)p - u(1,0,2)n >= 0
MCLin8(1,0,2):  -69 y(0,1,2) - v(1,0,2)p + v(1,0,2)n + u(1,0,2)p - u(1,0,2)n >= -69
MCLin9(1,0,2):  -69 y(0,1,2) + u(1,0,2)p - u(1,0,2)n <= 0
MCLin10(1,0,2):  74 y(0,1,2) - v(1,0,2)p + v(1,0,2)n + u(1,0,2)p - u(1,0,2)n <= 74
MCLinV(0,1,3):  - x(0,3) + v(0,1,3)p - v(0,1,3)n + x(1,3) = -7
MCLinV(1,0,3):  x(0,3) + v(1,0,3)p - v(1,0,3)n - x(1,3) = -1
MCLin1(0,1,3):  u(0,1,3)p - u(0,1,3)n >= 0
MCLin2(0,1,3):  71 y(1,0,3) + u(0,1,3)p - u(0,1,3)n >= 0
MCLin3(0,1,3):  -72 y(1,0,3) - v(0,1,3)p + v(0,1,3)n + u(0,1,3)p - u(0,1,3)n >= -72
MCLin4(0,1,3):  -72 y(1,0,3) + u(0,1,3)p - u(0,1,3)n <= 0
MCLin5(0,1,3):  71 y(1,0,3) - v(0,1,3)p + v(0,1,3)n + u(0,1,3)p - u(0,1,3)n <= 71
MCLin6(1,0,3):  u(1,0,3)p - u(1,0,3)n >= 0
MCLin7(1,0,3):  80 y(0,1,3) + u(1,0,3)p - u(1,0,3)n >= 0
MCLin8(1,0,3):  -63 y(0,1,3) - v(1,0,3)p + v(1,0,3)n + u(1,0,3)p - u(1,0,3)n >= -63
MCLin9(1,0,3):  -63 y(0,1,3) + u(1,0,3)p - u(1,0,3)n <= 0
MCLin10(1,0,3):  80 y(0,1,3) - v(1,0,3)p + v(1,0,3)n + u(1,0,3)p - u(1,0,3)n <= 80
MCLinV(0,2,0):  - x(0,0) + v(0,2,0)p - v(0,2,0)n + x(2,0) = -1
MCLinV(2,0,0):  x(0,0) + v(2,0,0)p - v(2,0,0)n - x(2,0) = -10
MCLin1(0,2,0):  u(0,2,0)p - u(0,2,0)n >= 0
MCLin2(0,2,0):  94 y(2,0,0) + u(0,2,0)p - u(0,2,0)n >= 0
MCLin3(0,2,0):  -50 y(2,0,0) - v(0,2,0)p + v(0,2,0)n + u(0,2,0)p - u(0,2,0)n >= -50
MCLin4(0,2,0):  -50 y(2,0,0) + u(0,2,0)p - u(0,2,0)n <= 0
MCLin5(0,2,0):  94 y(2,0,0) - v(0,2,0)p + v(0,2,0)n + u(0,2,0)p - u(0,2,0)n <= 94
MCLin6(2,0,0):  u(2,0,0)p - u(2,0,0)n >= 0
MCLin7(2,0,0):  61 y(0,2,0) + u(2,0,0)p - u(2,0,0)n >= 0
MCLin8(2,0,0):  -83 y(0,2,0) - v(2,0,0)p + v(2,0,0)n + u(2,0,0)p - u(2,0,0)n >= -83
MCLin9(2,0,0):  -83 y(0,2,0) + u(2,0,0)p - u(2,0,0)n <= 0
MCLin10(2,0,0):  61 y(0,2,0) - v(2,0,0)p + v(2,0,0)n + u(2,0,0)p - u(2,0,0)n <= 61
MCLinV(0,2,1):  - x(0,1) + v(0,2,1)p - v(0,2,1)n + x(2,1) = -7
MCLinV(2,0,1):  x(0,1) + v(2,0,1)p - v(2,0,1)n - x(2,1) = -7
MCLin1(0,2,1):  u(0,2,1)p - u(0,2,1)n >= 0
MCLin2(0,2,1):  76 y(2,0,1) + u(0,2,1)p - u(0,2,1)n >= 0
MCLin3(0,2,1):  -68 y(2,0,1) - v(0,2,1)p + v(0,2,1)n + u(0,2,1)p - u(0,2,1)n >= -68
MCLin4(0,2,1):  -68 y(2,0,1) + u(0,2,1)p - u(0,2,1)n <= 0
MCLin5(0,2,1):  76 y(2,0,1) - v(0,2,1)p + v(0,2,1)n + u(0,2,1)p - u(0,2,1)n <= 76
MCLin6(2,0,1):  u(2,0,1)p - u(2,0,1)n >= 0
MCLin7(2,0,1):  82 y(0,2,1) + u(2,0,1)p - u(2,0,1)n >= 0
MCLin8(2,0,1):  -62 y(0,2,1) - v(2,0,1)p + v(2,0,1)n + u(2,0,1)p - u(2,0,1)n >= -62
MCLin9(2,0,1):  -62 y(0,2,1) + u(2,0,1)p - u(2,0,1)n <= 0
MCLin10(2,0,1):  82 y(0,2,1) - v(2,0,1)p + v(2,0,1)n + u(2,0,1)p - u(2,0,1)n <= 82
MCLinV(0,2,2):  - x(0,2) + v(0,2,2)p - v(0,2,2)n + x(2,2) = -3
MCLinV(2,0,2):  x(0,2) + v(2,0,2)p - v(2,0,2)n - x(2,2) = -6
MCLin1(0,2,2):  u(0,2,2)p - u(0,2,2)n >= 0
MCLin2(0,2,2):  75 y(2,0,2) + u(0,2,2)p - u(0,2,2)n >= 0
MCLin3(0,2,2):  -69 y(2,0,2) - v(0,2,2)p + v(0,2,2)n + u(0,2,2)p - u(0,2,2)n >= -69
MCLin4(0,2,2):  -69 y(2,0,2) + u(0,2,2)p - u(0,2,2)n <= 0
MCLin5(0,2,2):  75 y(2,0,2) - v(0,2,2)p + v(0,2,2)n + u(0,2,2)p - u(0,2,2)n <= 75
MCLin6(2,0,2):  u(2,0,2)p - u(2,0,2)n >= 0
MCLin7(2,0,2):  78 y(0,2,2) + u(2,0,2)p - u(2,0,2)n >= 0
MCLin8(2,0,2):  -66 y(0,2,2) - v(2,0,2)p + v(2,0,2)n + u(2,0,2)p - u(2,0,2)n >= -66
MCLin9(2,0,2):  -66 y(0,2,2) + u(2,0,2)p - u(2,0,2)n <= 0
MCLin10(2,0,2):  78 y(0,2,2) - v(2,0,2)p + v(2,0,2)n + u(2,0,2)p - u(2,0,2)n <= 78
MCLinV(0,2,3):  - x(0,3) + v(0,2,3)p - v(0,2,3)n + x(2,3) = -9
MCLinV(2,0,3):  x(0,3) + v(2,0,3)p - v(2,0,3)n - x(2,3) = -1
MCLin1(0,2,3):  u(0,2,3)p - u(0,2,3)n >= 0
MCLin2(0,2,3):  73 y(2,0,3) + u(0,2,3)p - u(0,2,3)n >= 0
MCLin3(0,2,3):  -71 y(2,0,3) - v(0,2,3)p + v(0,2,3)n + u(0,2,3)p - u(0,2,3)n >= -71
MCLin4(0,2,3):  -71 y(2,0,3) + u(0,2,3)p - u(0,2,3)n <= 0
MCLin5(0,2,3):  73 y(2,0,3) - v(0,2,3)p + v(0,2,3)n + u(0,2,3)p - u(0,2,3)n <= 73
MCLin6(2,0,3):  u(2,0,3)p - u(2,0,3)n >= 0
MCLin7(2,0,3):  81 y(0,2,3) + u(2,0,3)p - u(2,0,3)n >= 0
MCLin8(2,0,3):  -63 y(0,2,3) - v(2,0,3)p + v(2,0,3)n + u(2,0,3)p - u(2,0,3)n >= -63
MCLin9(2,0,3):  -63 y(0,2,3) + u(2,0,3)p - u(2,0,3)n <= 0
MCLin10(2,0,3):  81 y(0,2,3) - v(2,0,3)p + v(2,0,3)n + u(2,0,3)p - u(2,0,3)n <= 81
MCLinV(0,3,0):  - x(0,0) + v(0,3,0)p - v(0,3,0)n + x(3,0) = -9
MCLinV(3,0,0):  x(0,0) + v(3,0,0)p - v(3,0,0)n - x(3,0) = -10
MCLin1(0,3,0):  u(0,3,0)p - u(0,3,0)n >= 0
MCLin2(0,3,0):  84 y(3,0,0) + u(0,3,0)p - u(0,3,0)n >= 0
MCLin3(0,3,0):  -51 y(3,0,0) - v(0,3,0)p + v(0,3,0)n + u(0,3,0)p - u(0,3,0)n >= -51
MCLin4(0,3,0):  -51 y(3,0,0) + u(0,3,0)p - u(0,3,0)n <= 0
MCLin5(0,3,0):  84 y(3,0,0) - v(0,3,0)p + v(0,3,0)n + u(0,3,0)p - u(0,3,0)n <= 84
MCLin6(3,0,0):  u(3,0,0)p - u(3,0,0)n >= 0
MCLin7(3,0,0):  70 y(0,3,0) + u(3,0,0)p - u(3,0,0)n >= 0
MCLin8(3,0,0):  -65 y(0,3,0) - v(3,0,0)p + v(3,0,0)n + u(3,0,0)p - u(3,0,0)n >= -65
MCLin9(3,0,0):  -65 y(0,3,0) + u(3,0,0)p - u(3,0,0)n <= 0
MCLin10(3,0,0):  70 y(0,3,0) - v(3,0,0)p + v(3,0,0)n + u(3,0,0)p - u(3,0,0)n <= 70
MCLinV(0,3,1):  - x(0,1) + v(0,3,1)p - v(0,3,1)n + x(3,1) = -7
MCLinV(3,0,1):  x(0,1) + v(3,0,1)p - v(3,0,1)n - x(3,1) = -7
MCLin1(0,3,1):  u(0,3,1)p - u(0,3,1)n >= 0
MCLin2(0,3,1):  55 y(3,0,1) + u(0,3,1)p - u(0,3,1)n >= 0
MCLin3(0,3,1):  -80 y(3,0,1) - v(0,3,1)p + v(0,3,1)n + u(0,3,1)p - u(0,3,1)n >= -80
MCLin4(0,3,1):  -80 y(3,0,1) + u(0,3,1)p - u(0,3,1)n <= 0
MCLin5(0,3,1):  55 y(3,0,1) - v(0,3,1)p + v(0,3,1)n + u(0,3,1)p - u(0,3,1)n <= 55
MCLin6(3,0,1):  u(3,0,1)p - u(3,0,1)n >= 0
MCLin7(3,0,1):  94 y(0,3,1) + u(3,0,1)p - u(3,0,1)n >= 0
MCLin8(3,0,1):  -41 y(0,3,1) - v(3,0,1)p + v(3,0,1)n + u(3,0,1)p - u(3,0,1)n >= -41
MCLin9(3,0,1):  -41 y(0,3,1) + u(3,0,1)p - u(3,0,1)n <= 0
MCLin10(3,0,1):  94 y(0,3,1) - v(3,0,1)p + v(3,0,1)n + u(3,0,1)p - u(3,0,1)n <= 94
MCLinV(0,3,2):  - x(0,2) + v(0,3,2)p - v(0,3,2)n + x(3,2) = -10
MCLinV(3,0,2):  x(0,2) + v(3,0,2)p - v(3,0,2)n - x(3,2) = -6
MCLin1(0,3,2):  u(0,3,2)p - u(0,3,2)n >= 0
MCLin2(0,3,2):  83 y(3,0,2) + u(0,3,2)p - u(0,3,2)n >= 0
MCLin3(0,3,2):  -52 y(3,0,2) - v(0,3,2)p + v(0,3,2)n + u(0,3,2)p - u(0,3,2)n >= -52
MCLin4(0,3,2):  -52 y(3,0,2) + u(0,3,2)p - u(0,3,2)n <= 0
MCLin5(0,3,2):  83 y(3,0,2) - v(0,3,2)p + v(0,3,2)n + u(0,3,2)p - u(0,3,2)n <= 83
MCLin6(3,0,2):  u(3,0,2)p - u(3,0,2)n >= 0
MCLin7(3,0,2):  68 y(0,3,2) + u(3,0,2)p - u(3,0,2)n >= 0
MCLin8(3,0,2):  -67 y(0,3,2) - v(3,0,2)p + v(3,0,2)n + u(3,0,2)p - u(3,0,2)n >= -67
MCLin9(3,0,2):  -67 y(0,3,2) + u(3,0,2)p - u(3,0,2)n <= 0
MCLin10(3,0,2):  68 y(0,3,2) - v(3,0,2)p + v(3,0,2)n + u(3,0,2)p - u(3,0,2)n <= 68
MCLinV(0,3,3):  - x(0,3) + v(0,3,3)p - v(0,3,3)n + x(3,3) = -3
MCLinV(3,0,3):  x(0,3) + v(3,0,3)p - v(3,0,3)n - x(3,3) = -1
MCLin1(0,3,3):  u(0,3,3)p - u(0,3,3)n >= 0
MCLin2(0,3,3):  65 y(3,0,3) + u(0,3,3)p - u(0,3,3)n >= 0
MCLin3(0,3,3):  -70 y(3,0,3) - v(0,3,3)p + v(0,3,3)n + u(0,3,3)p - u(0,3,3)n >= -70
MCLin4(0,3,3):  -70 y(3,0,3) + u(0,3,3)p - u(0,3,3)n <= 0
MCLin5(0,3,3):  65 y(3,0,3) - v(0,3,3)p + v(0,3,3)n + u(0,3,3)p - u(0,3,3)n <= 65
MCLin6(3,0,3):  u(3,0,3)p - u(3,0,3)n >= 0
MCLin7(3,0,3):  74 y(0,3,3) + u(3,0,3)p - u(3,0,3)n >= 0
MCLin8(3,0,3):  -61 y(0,3,3) - v(3,0,3)p + v(3,0,3)n + u(3,0,3)p - u(3,0,3)n >= -61
MCLin9(3,0,3):  -61 y(0,3,3) + u(3,0,3)p - u(3,0,3)n <= 0
MCLin10(3,0,3):  74 y(0,3,3) - v(3,0,3)p + v(3,0,3)n + u(3,0,3)p - u(3,0,3)n <= 74
MCLinV(1,2,0):  - x(1,0) + v(1,2,0)p - v(1,2,0)n + x(2,0) = -1
MCLinV(2,1,0):  x(1,0) + v(2,1,0)p - v(2,1,0)n - x(2,0) = -1
MCLin1(1,2,0):  u(1,2,0)p - u(1,2,0)n >= 0
MCLin2(1,2,0):  94 y(2,1,0) + u(1,2,0)p - u(1,2,0)n >= 0
MCLin3(1,2,0):  -53 y(2,1,0) - v(1,2,0)p + v(1,2,0)n + u(1,2,0)p - u(1,2,0)n >= -53
MCLin4(1,2,0):  -53 y(2,1,0) + u(1,2,0)p - u(1,2,0)n <= 0
MCLin5(1,2,0):  94 y(2,1,0) - v(1,2,0)p + v(1,2,0)n + u(1,2,0)p - u(1,2,0)n <= 94
MCLin6(2,1,0):  u(2,1,0)p - u(2,1,0)n >= 0
MCLin7(2,1,0):  55 y(1,2,0) + u(2,1,0)p - u(2,1,0)n >= 0
MCLin8(2,1,0):  -92 y(1,2,0) - v(2,1,0)p + v(2,1,0)n + u(2,1,0)p - u(2,1,0)n >= -92
MCLin9(2,1,0):  -92 y(1,2,0) + u(2,1,0)p - u(2,1,0)n <= 0
MCLin10(2,1,0):  55 y(1,2,0) - v(2,1,0)p + v(2,1,0)n + u(2,1,0)p - u(2,1,0)n <= 55
MCLinV(1,2,1):  - x(1,1) + v(1,2,1)p - v(1,2,1)n + x(2,1) = -7
MCLinV(2,1,1):  x(1,1) + v(2,1,1)p - v(2,1,1)n - x(2,1) = -5
MCLin1(1,2,1):  u(1,2,1)p - u(1,2,1)n >= 0
MCLin2(1,2,1):  85 y(2,1,1) + u(1,2,1)p - u(1,2,1)n >= 0
MCLin3(1,2,1):  -62 y(2,1,1) - v(1,2,1)p + v(1,2,1)n + u(1,2,1)p - u(1,2,1)n >= -62
MCLin4(1,2,1):  -62 y(2,1,1) + u(1,2,1)p - u(1,2,1)n <= 0
MCLin5(1,2,1):  85 y(2,1,1) - v(1,2,1)p + v(1,2,1)n + u(1,2,1)p - u(1,2,1)n <= 85
MCLin6(2,1,1):  u(2,1,1)p - u(2,1,1)n >= 0
MCLin7(2,1,1):  74 y(1,2,1) + u(2,1,1)p - u(2,1,1)n >= 0
MCLin8(2,1,1):  -73 y(1,2,1) - v(2,1,1)p + v(2,1,1)n + u(2,1,1)p - u(2,1,1)n >= -73
MCLin9(2,1,1):  -73 y(1,2,1) + u(2,1,1)p - u(2,1,1)n <= 0
MCLin10(2,1,1):  74 y(1,2,1) - v(2,1,1)p + v(2,1,1)n + u(2,1,1)p - u(2,1,1)n <= 74
MCLinV(1,2,2):  - x(1,2) + v(1,2,2)p - v(1,2,2)n + x(2,2) = -3
MCLinV(2,1,2):  x(1,2) + v(2,1,2)p - v(2,1,2)n - x(2,2) = -8
MCLin1(1,2,2):  u(1,2,2)p - u(1,2,2)n >= 0
MCLin2(1,2,2):  73 y(2,1,2) + u(1,2,2)p - u(1,2,2)n >= 0
MCLin3(1,2,2):  -74 y(2,1,2) - v(1,2,2)p + v(1,2,2)n + u(1,2,2)p - u(1,2,2)n >= -74
MCLin4(1,2,2):  -74 y(2,1,2) + u(1,2,2)p - u(1,2,2)n <= 0
MCLin5(1,2,2):  73 y(2,1,2) - v(1,2,2)p + v(1,2,2)n + u(1,2,2)p - u(1,2,2)n <= 73
MCLin6(2,1,2):  u(2,1,2)p - u(2,1,2)n >= 0
MCLin7(2,1,2):  85 y(1,2,2) + u(2,1,2)p - u(2,1,2)n >= 0
MCLin8(2,1,2):  -62 y(1,2,2) - v(2,1,2)p + v(2,1,2)n + u(2,1,2)p - u(2,1,2)n >= -62
MCLin9(2,1,2):  -62 y(1,2,2) + u(2,1,2)p - u(2,1,2)n <= 0
MCLin10(2,1,2):  85 y(1,2,2) - v(2,1,2)p + v(2,1,2)n + u(2,1,2)p - u(2,1,2)n <= 85
MCLinV(1,2,3):  - x(1,3) + v(1,2,3)p - v(1,2,3)n + x(2,3) = -9
MCLinV(2,1,3):  x(1,3) + v(2,1,3)p - v(2,1,3)n - x(2,3) = -7
MCLin1(1,2,3):  u(1,2,3)p - u(1,2,3)n >= 0
MCLin2(1,2,3):  82 y(2,1,3) + u(1,2,3)p - u(1,2,3)n >= 0
MCLin3(1,2,3):  -65 y(2,1,3) - v(1,2,3)p + v(1,2,3)n + u(1,2,3)p - u(1,2,3)n >= -65
MCLin4(1,2,3):  -65 y(2,1,3) + u(1,2,3)p - u(1,2,3)n <= 0
MCLin5(1,2,3):  82 y(2,1,3) - v(1,2,3)p + v(1,2,3)n + u(1,2,3)p - u(1,2,3)n <= 82
MCLin6(2,1,3):  u(2,1,3)p - u(2,1,3)n >= 0
MCLin7(2,1,3):  81 y(1,2,3) + u(2,1,3)p - u(2,1,3)n >= 0
MCLin8(2,1,3):  -66 y(1,2,3) - v(2,1,3)p + v(2,1,3)n + u(2,1,3)p - u(2,1,3)n >= -66
MCLin9(2,1,3):  -66 y(1,2,3) + u(2,1,3)p - u(2,1,3)n <= 0
MCLin10(2,1,3):  81 y(1,2,3) - v(2,1,3)p + v(2,1,3)n + u(2,1,3)p - u(2,1,3)n <= 81
MCLinV(1,3,0):  - x(1,0) + v(1,3,0)p - v(1,3,0)n + x(3,0) = -9
MCLinV(3,1,0):  x(1,0) + v(3,1,0)p - v(3,1,0)n - x(3,0) = -1
MCLin1(1,3,0):  u(1,3,0)p - u(1,3,0)n >= 0
MCLin2(1,3,0):  84 y(3,1,0) + u(1,3,0)p - u(1,3,0)n >= 0
MCLin3(1,3,0):  -54 y(3,1,0) - v(1,3,0)p + v(1,3,0)n + u(1,3,0)p - u(1,3,0)n >= -54
MCLin4(1,3,0):  -54 y(3,1,0) + u(1,3,0)p - u(1,3,0)n <= 0
MCLin5(1,3,0):  84 y(3,1,0) - v(1,3,0)p + v(1,3,0)n + u(1,3,0)p - u(1,3,0)n <= 84
MCLin6(3,1,0):  u(3,1,0)p - u(3,1,0)n >= 0
MCLin7(3,1,0):  64 y(1,3,0) + u(3,1,0)p - u(3,1,0)n >= 0
MCLin8(3,1,0):  -74 y(1,3,0) - v(3,1,0)p + v(3,1,0)n + u(3,1,0)p - u(3,1,0)n >= -74
MCLin9(3,1,0):  -74 y(1,3,0) + u(3,1,0)p - u(3,1,0)n <= 0
MCLin10(3,1,0):  64 y(1,3,0) - v(3,1,0)p + v(3,1,0)n + u(3,1,0)p - u(3,1,0)n <= 64
MCLinV(1,3,1):  - x(1,1) + v(1,3,1)p - v(1,3,1)n + x(3,1) = -7
MCLinV(3,1,1):  x(1,1) + v(3,1,1)p - v(3,1,1)n - x(3,1) = -5
MCLin1(1,3,1):  u(1,3,1)p - u(1,3,1)n >= 0
MCLin2(1,3,1):  64 y(3,1,1) + u(1,3,1)p - u(1,3,1)n >= 0
MCLin3(1,3,1):  -74 y(3,1,1) - v(1,3,1)p + v(1,3,1)n + u(1,3,1)p - u(1,3,1)n >= -74
MCLin4(1,3,1):  -74 y(3,1,1) + u(1,3,1)p - u(1,3,1)n <= 0
MCLin5(1,3,1):  64 y(3,1,1) - v(1,3,1)p + v(1,3,1)n + u(1,3,1)p - u(1,3,1)n <= 64
MCLin6(3,1,1):  u(3,1,1)p - u(3,1,1)n >= 0
MCLin7(3,1,1):  86 y(1,3,1) + u(3,1,1)p - u(3,1,1)n >= 0
MCLin8(3,1,1):  -52 y(1,3,1) - v(3,1,1)p + v(3,1,1)n + u(3,1,1)p - u(3,1,1)n >= -52
MCLin9(3,1,1):  -52 y(1,3,1) + u(3,1,1)p - u(3,1,1)n <= 0
MCLin10(3,1,1):  86 y(1,3,1) - v(3,1,1)p + v(3,1,1)n + u(3,1,1)p - u(3,1,1)n <= 86
MCLinV(1,3,2):  - x(1,2) + v(1,3,2)p - v(1,3,2)n + x(3,2) = -10
MCLinV(3,1,2):  x(1,2) + v(3,1,2)p - v(3,1,2)n - x(3,2) = -8
MCLin1(1,3,2):  u(1,3,2)p - u(1,3,2)n >= 0
MCLin2(1,3,2):  81 y(3,1,2) + u(1,3,2)p - u(1,3,2)n >= 0
MCLin3(1,3,2):  -57 y(3,1,2) - v(1,3,2)p + v(1,3,2)n + u(1,3,2)p - u(1,3,2)n >= -57
MCLin4(1,3,2):  -57 y(3,1,2) + u(1,3,2)p - u(1,3,2)n <= 0
MCLin5(1,3,2):  81 y(3,1,2) - v(1,3,2)p + v(1,3,2)n + u(1,3,2)p - u(1,3,2)n <= 81
MCLin6(3,1,2):  u(3,1,2)p - u(3,1,2)n >= 0
MCLin7(3,1,2):  75 y(1,3,2) + u(3,1,2)p - u(3,1,2)n >= 0
MCLin8(3,1,2):  -63 y(1,3,2) - v(3,1,2)p + v(3,1,2)n + u(3,1,2)p - u(3,1,2)n >= -63
MCLin9(3,1,2):  -63 y(1,3,2) + u(3,1,2)p - u(3,1,2)n <= 0
MCLin10(3,1,2):  75 y(1,3,2) - v(3,1,2)p + v(3,1,2)n + u(3,1,2)p - u(3,1,2)n <= 75
MCLinV(1,3,3):  - x(1,3) + v(1,3,3)p - v(1,3,3)n + x(3,3) = -3
MCLinV(3,1,3):  x(1,3) + v(3,1,3)p - v(3,1,3)n - x(3,3) = -7
MCLin1(1,3,3):  u(1,3,3)p - u(1,3,3)n >= 0
MCLin2(1,3,3):  74 y(3,1,3) + u(1,3,3)p - u(1,3,3)n >= 0
MCLin3(1,3,3):  -64 y(3,1,3) - v(1,3,3)p + v(1,3,3)n + u(1,3,3)p - u(1,3,3)n >= -64
MCLin4(1,3,3):  -64 y(3,1,3) + u(1,3,3)p - u(1,3,3)n <= 0
MCLin5(1,3,3):  74 y(3,1,3) - v(1,3,3)p + v(1,3,3)n + u(1,3,3)p - u(1,3,3)n <= 74
MCLin6(3,1,3):  u(3,1,3)p - u(3,1,3)n >= 0
MCLin7(3,1,3):  74 y(1,3,3) + u(3,1,3)p - u(3,1,3)n >= 0
MCLin8(3,1,3):  -64 y(1,3,3) - v(3,1,3)p + v(3,1,3)n + u(3,1,3)p - u(3,1,3)n >= -64
MCLin9(3,1,3):  -64 y(1,3,3) + u(3,1,3)p - u(3,1,3)n <= 0
MCLin10(3,1,3):  74 y(1,3,3) - v(3,1,3)p + v(3,1,3)n + u(3,1,3)p - u(3,1,3)n <= 74
MCLinV(2,3,0):  - x(2,0) + v(2,3,0)p - v(2,3,0)n + x(3,0) = -9
MCLinV(3,2,0):  x(2,0) + v(3,2,0)p - v(3,2,0)n - x(3,0) = -1
MCLin1(2,3,0):  u(2,3,0)p - u(2,3,0)n >= 0
MCLin2(2,3,0):  65 y(3,2,0) + u(2,3,0)p - u(2,3,0)n >= 0
MCLin3(2,3,0):  -74 y(3,2,0) - v(2,3,0)p + v(2,3,0)n + u(2,3,0)p - u(2,3,0)n >= -74
MCLin4(2,3,0):  -74 y(3,2,0) + u(2,3,0)p - u(2,3,0)n <= 0
MCLin5(2,3,0):  65 y(3,2,0) - v(2,3,0)p + v(2,3,0)n + u(2,3,0)p - u(2,3,0)n <= 65
MCLin6(3,2,0):  u(3,2,0)p - u(3,2,0)n >= 0
MCLin7(3,2,0):  84 y(2,3,0) + u(3,2,0)p - u(3,2,0)n >= 0
MCLin8(3,2,0):  -55 y(2,3,0) - v(3,2,0)p + v(3,2,0)n + u(3,2,0)p - u(3,2,0)n >= -55
MCLin9(3,2,0):  -55 y(2,3,0) + u(3,2,0)p - u(3,2,0)n <= 0
MCLin10(3,2,0):  84 y(2,3,0) - v(3,2,0)p + v(3,2,0)n + u(3,2,0)p - u(3,2,0)n <= 84
MCLinV(2,3,1):  - x(2,1) + v(2,3,1)p - v(2,3,1)n + x(3,1) = -7
MCLinV(3,2,1):  x(2,1) + v(3,2,1)p - v(3,2,1)n - x(3,1) = -7
MCLin1(2,3,1):  u(2,3,1)p - u(2,3,1)n >= 0
MCLin2(2,3,1):  60 y(3,2,1) + u(2,3,1)p - u(2,3,1)n >= 0
MCLin3(2,3,1):  -79 y(3,2,1) - v(2,3,1)p + v(2,3,1)n + u(2,3,1)p - u(2,3,1)n >= -79
MCLin4(2,3,1):  -79 y(3,2,1) + u(2,3,1)p - u(2,3,1)n <= 0
MCLin5(2,3,1):  60 y(3,2,1) - v(2,3,1)p + v(2,3,1)n + u(2,3,1)p - u(2,3,1)n <= 60
MCLin6(3,2,1):  u(3,2,1)p - u(3,2,1)n >= 0
MCLin7(3,2,1):  93 y(2,3,1) + u(3,2,1)p - u(3,2,1)n >= 0
MCLin8(3,2,1):  -46 y(2,3,1) - v(3,2,1)p + v(3,2,1)n + u(3,2,1)p - u(3,2,1)n >= -46
MCLin9(3,2,1):  -46 y(2,3,1) + u(3,2,1)p - u(3,2,1)n <= 0
MCLin10(3,2,1):  93 y(2,3,1) - v(3,2,1)p + v(3,2,1)n + u(3,2,1)p - u(3,2,1)n <= 93
MCLinV(2,3,2):  - x(2,2) + v(2,3,2)p - v(2,3,2)n + x(3,2) = -10
MCLinV(3,2,2):  x(2,2) + v(3,2,2)p - v(3,2,2)n - x(3,2) = -3
MCLin1(2,3,2):  u(2,3,2)p - u(2,3,2)n >= 0
MCLin2(2,3,2):  85 y(3,2,2) + u(2,3,2)p - u(2,3,2)n >= 0
MCLin3(2,3,2):  -54 y(3,2,2) - v(2,3,2)p + v(2,3,2)n + u(2,3,2)p - u(2,3,2)n >= -54
MCLin4(2,3,2):  -54 y(3,2,2) + u(2,3,2)p - u(2,3,2)n <= 0
MCLin5(2,3,2):  85 y(3,2,2) - v(2,3,2)p + v(2,3,2)n + u(2,3,2)p - u(2,3,2)n <= 85
MCLin6(3,2,2):  u(3,2,2)p - u(3,2,2)n >= 0
MCLin7(3,2,2):  67 y(2,3,2) + u(3,2,2)p - u(3,2,2)n >= 0
MCLin8(3,2,2):  -72 y(2,3,2) - v(3,2,2)p + v(3,2,2)n + u(3,2,2)p - u(3,2,2)n >= -72
MCLin9(3,2,2):  -72 y(2,3,2) + u(3,2,2)p - u(3,2,2)n <= 0
MCLin10(3,2,2):  67 y(2,3,2) - v(3,2,2)p + v(3,2,2)n + u(3,2,2)p - u(3,2,2)n <= 67
MCLinV(2,3,3):  - x(2,3) + v(2,3,3)p - v(2,3,3)n + x(3,3) = -3
MCLinV(3,2,3):  x(2,3) + v(3,2,3)p - v(3,2,3)n - x(3,3) = -9
MCLin1(2,3,3):  u(2,3,3)p - u(2,3,3)n >= 0
MCLin2(2,3,3):  75 y(3,2,3) + u(2,3,3)p - u(2,3,3)n >= 0
MCLin3(2,3,3):  -64 y(3,2,3) - v(2,3,3)p + v(2,3,3)n + u(2,3,3)p - u(2,3,3)n >= -64
MCLin4(2,3,3):  -64 y(3,2,3) + u(2,3,3)p - u(2,3,3)n <= 0
MCLin5(2,3,3):  75 y(3,2,3) - v(2,3,3)p + v(2,3,3)n + u(2,3,3)p - u(2,3,3)n <= 75
MCLin6(3,2,3):  u(3,2,3)p - u(3,2,3)n >= 0
MCLin7(3,2,3):  76 y(2,3,3) + u(3,2,3)p - u(3,2,3)n >= 0
MCLin8(3,2,3):  -63 y(2,3,3) - v(3,2,3)p + v(3,2,3)n + u(3,2,3)p - u(3,2,3)n >= -63
MCLin9(3,2,3):  -63 y(2,3,3) + u(3,2,3)p - u(3,2,3)n <= 0
MCLin10(3,2,3):  76 y(2,3,3) - v(3,2,3)p + v(3,2,3)n + u(3,2,3)p - u(3,2,3)n <= 76
makespan(0):  C - x(0,1) >= 7
makespan(1):  C - x(1,2) >= 8
makespan(2):  C - x(2,0) >= 1
makespan(3):  C - x(3,2) >= 10
cut_clique_1(013,0):  0.78597 x(0,0) + x(1,0) + 0.03311 x(3,0) >= 1
cut_clique_1(012,0):  0.56684 x(0,0) + 0.87470 x(1,0) + 0.05237 x(2,0) >= 1
cut_clique_1(01,2):  0.08230 x(0,2) + 0.00728 x(1,2) >= 1
cut_clique_1(12,3):  0.98127 x(1,3) + 0.89627 x(2,3) >= 1
cut_clique_1(123,3):  0.13300 x(1,3) + 0.67196 x(2,3) + 0.12276 x(3,3) >= 1
cut_clique_1(23,3):  x(2,3) + 0.14179 x(3,3) >= 1
cut_clique_1(012,3):  0.05335 x(0,3) + 0.43828 x(1,3) + 0.88873 x(2,3) >= 1
cut_clique_2(02,2):  0.03556 x(0,2) + 0.06746 x(2,2) >= 1
cut_clique_2(12,3):  0.59274 x(1,3) + 0.73987 x(2,3) >= 1
cut_clique_2(123,3):  0.13733 x(1,3) + 0.80977 x(2,3) + 0.06749 x(3,3) >= 1
cut_clique_2(012,3):  0.08895 x(0,3) + 0.06113 x(1,3) + 0.62939 x(2,3) >= 1
cut_clique_3(013,0):  0.90406 x(0,0) + 0.19269 x(1,0) + 0.07389 x(3,0) >= 1
cut_clique_3(01,0):  x(0,0) + 0.96849 x(1,0) >= 1
cut_clique_3(012,2):  0.06815 x(0,2) + 0.01416 x(1,2) + 0.00458 x(2,2) >= 1
cut_clique_3(01,2):  0.07522 x(0,2) + 0.01167 x(1,2) >= 1
cut_clique_3(02,2):  0.07107 x(0,2) + 0.02199 x(2,2) >= 1
cut_clique_3(12,3):  0.31398 x(1,3) + 0.98953 x(2,3) >= 1
cut_clique_3(23,3):  0.38564 x(2,3) + 0.11728 x(3,3) >= 1
cut_clique_3(123,3):  0.17975 x(1,3) + 0.44525 x(2,3) + 0.06420 x(3,3) >= 1
cut_clique_3(012,3):  0.00858 x(0,3) + 0.18999 x(1,3) + 0.45264 x(2,3) >= 1
cut_clique_4(012,0):  x(0,0) + 0.40296 x(1,0) + 0.02631 x(2,0) >= 1
cut_clique_4(01,0):  x(0,0) + 0.96226 x(1,0) >= 1
cut_clique_4(01,2):  0.01843 x(0,2) + 0.05678 x(1,2) >= 1
cut_clique_4(12,3):  0.25692 x(1,3) + 0.38564 x(2,3) >= 1
cut_clique_4(123,3):  0.19638 x(1,3) + 0.14963 x(2,3) + 0.00570 x(3,3) >= 1
cut_clique_5(012,0):  0.73719 x(0,0) + 0.04522 x(1,0) + 0.04130 x(2,0) >= 1
cut_clique_5(0123,0):  x(0,0) + 0.03108 x(1,0) + 0.03415 x(2,0) + 0.01574 x(3,0) >= 1
cut_clique_5(02,2):  0.06443 x(0,2) + 0.02899 x(2,2) >= 1
cut_clique_5(12,3):  0.18643 x(1,3) + 0.32918 x(2,3) >= 1
cut_clique_5(012,3):  0.01687 x(0,3) + 0.13469 x(1,3) + 0.36690 x(2,3) >= 1
cut_clique_6(02,2):  0.07646 x(0,2) + 0.01205 x(2,2) >= 1
cut_clique_6(12,3):  0.17799 x(1,3) + 0.21962 x(2,3) >= 1
cut_clique_6(012,3):  0.01896 x(0,3) + 0.09167 x(1,3) + 0.60907 x(2,3) >= 1
cut_clique_6(123,3):  0.02278 x(1,3) + 0.03592 x(2,3) + 0.12175 x(3,3) >= 1
cut_clique_6(23,3):  0.01787 x(2,3) + 0.14117 x(3,3) >= 1
cut_clique_7(01,2):  0.02630 x(0,2) + 0.04493 x(1,2) >= 1
cut_clique_7(012,3):  0.00317 x(0,3) + 0.16182 x(1,3) + 0.15775 x(2,3) >= 1
cut_clique_7(12,3):  0.18614 x(1,3) + 0.18548 x(2,3) >= 1
cut_clique_7(23,3):  0.09826 x(2,3) + 0.11458 x(3,3) >= 1
cut_clique_7(13,3):  0.01438 x(1,3) + 0.13458 x(3,3) >= 1
cut_clique_8(013,0):  0.57346 x(0,0) + 0.07462 x(1,0) + 0.07461 x(3,0) >= 1
cut_clique_8(13,2):  0.01283 x(1,2) + 0.04090 x(3,2) >= 1
cut_clique_8(01,2):  0.04234 x(0,2) + 0.03322 x(1,2) >= 1
cut_clique_8(013,2):  0.06226 x(0,2) + 0.01744 x(1,2) + 0.00168 x(3,2) >= 1
cut_clique_8(12,3):  0.18647 x(1,3) + 0.12246 x(2,3) >= 1
cut_clique_9(23,3):  0.07319 x(2,3) + 0.11998 x(3,3) >= 1
cut_clique_9(12,3):  0.13699 x(1,3) + 0.12636 x(2,3) >= 1
cut_clique_10(012,3):  0.00354 x(0,3) + 0.12266 x(1,3) + 0.12535 x(2,3) >= 1
cut_clique_11(013,0):  0.46952 x(0,0) + 0.10087 x(1,0) + 0.05329 x(3,0) >= 1
cut_clique_11(13,3):  0.01639 x(1,3) + 0.12691 x(3,3) >= 1
cut_clique_11(23,3):  0.02792 x(2,3) + 0.13358 x(3,3) >= 1
cut_clique_12(23,3):  0.04521 x(2,3) + 0.11849 x(3,3) >= 1
Bounds
 0 <= C <= 94
 0 <= x(0,0) <= 70
 0 <= y(0,1,0) <= 1
 0 <= y(1,0,0) <= 1
 0 <= v(0,1,0)p <= 69
 0 <= v(0,1,0)n <= 74
 0 <= v(1,0,0)p <= 63
 0 <= v(1,0,0)n <= 80
 0 <= u(0,1,0)p <= 940
 0 <= u(0,1,0)n <= 940
 0 <= u(1,0,0)p <= 940
 0 <= u(1,0,0)n <= 940
 0 <= y(0,2,0) <= 1
 0 <= y(2,0,0) <= 1
 0 <= v(0,2,0)p <= 50
 0 <= v(0,2,0)n <= 94
 0 <= v(2,0,0)p <= 83
 0 <= v(2,0,0)n <= 61
 0 <= u(0,2,0)p <= 940
 0 <= u(0,2,0)n <= 940
 0 <= u(2,0,0)p <= 940
 0 <= u(2,0,0)n <= 940
 0 <= y(0,3,0) <= 1
 0 <= y(3,0,0) <= 1
 0 <= v(0,3,0)p <= 51
 0 <= v(0,3,0)n <= 84
 0 <= v(3,0,0)p <= 65
 0 <= v(3,0,0)n <= 70
 0 <= u(0,3,0)p <= 940
 0 <= u(0,3,0)n <= 940
 0 <= u(3,0,0)p <= 940
 0 <= u(3,0,0)n <= 940
 0 <= x(1,0) <= 73
 0 <= y(1,2,0) <= 1
 0 <= y(2,1,0) <= 1
 0 <= v(1,2,0)p <= 53
 0 <= v(1,2,0)n <= 94
 0 <= v(2,1,0)p <= 92
 0 <= v(2,1,0)n <= 55
 0 <= u(1,2,0)p <= 940
 0 <= u(1,2,0)n <= 940
 0 <= u(2,1,0)p <= 940
 0 <= u(2,1,0)n <= 940
 0 <= y(1,3,0) <= 1
 0 <= y(3,1,0) <= 1
 0 <= v(1,3,0)p <= 54
 0 <= v(1,3,0)n <= 84
 0 <= v(3,1,0)p <= 74
 0 <= v(3,1,0)n <= 64
 0 <= u(1,3,0)p <= 940
 0 <= u(1,3,0)n <= 940
 0 <= u(3,1,0)p <= 940
 0 <= u(3,1,0)n <= 940
 19 <= x(2,0) <= 93
 0 <= y(2,3,0) <= 1
 0 <= y(3,2,0) <= 1
 0 <= v(2,3,0)p <= 74
 0 <= v(2,3,0)n <= 65
 0 <= v(3,2,0)p <= 55
 0 <= v(3,2,0)n <= 84
 0 <= u(2,3,0)p <= 940
 0 <= u(2,3,0)n <= 940
 0 <= u(3,2,0)p <= 940
 0 <= u(3,2,0)n <= 940
 10 <= x(3,0) <= 75
 17 <= x(0,1) <= 87
 0 <= y(0,1,1) <= 1
 0 <= y(1,0,1) <= 1
 0 <= v(0,1,1)p <= 74
 0 <= v(0,1,1)n <= 69
 0 <= v(1,0,1)p <= 57
 0 <= v(1,0,1)n <= 86
 0 <= u(0,1,1)p <= 940
 0 <= u(0,1,1)n <= 940
 0 <= u(1,0,1)p <= 940
 0 <= u(1,0,1)n <= 940
 0 <= y(0,2,1) <= 1
 0 <= y(2,0,1) <= 1
 0 <= v(0,2,1)p <= 68
 0 <= v(0,2,1)n <= 76
 0 <= v(2,0,1)p <= 62
 0 <= v(2,0,1)n <= 82
 0 <= u(0,2,1)p <= 940
 0 <= u(0,2,1)n <= 940
 0 <= u(2,0,1)p <= 940
 0 <= u(2,0,1)n <= 940
 0 <= y(0,3,1) <= 1
 0 <= y(3,0,1) <= 1
 0 <= v(0,3,1)p <= 80
 0 <= v(0,3,1)n <= 55
 0 <= v(3,0,1)p <= 41
 0 <= v(3,0,1)n <= 94
 0 <= u(0,3,1)p <= 940
 0 <= u(0,3,1)n <= 940
 0 <= u(3,0,1)p <= 940
 0 <= u(3,0,1)n <= 940
 8 <= x(1,1) <= 81
 0 <= y(1,2,1) <= 1
 0 <= y(2,1,1) <= 1
 0 <= v(1,2,1)p <= 62
 0 <= v(1,2,1)n <= 85
 0 <= v(2,1,1)p <= 73
 0 <= v(2,1,1)n <= 74
 0 <= u(1,2,1)p <= 940
 0 <= u(1,2,1)n <= 940
 0 <= u(2,1,1)p <= 940
 0 <= u(2,1,1)n <= 940
 0 <= y(1,3,1) <= 1
 0 <= y(3,1,1) <= 1
 0 <= v(1,3,1)p <= 74
 0 <= v(1,3,1)n <= 64
 0 <= v(3,1,1)p <= 52
 0 <= v(3,1,1)n <= 86
 0 <= u(1,3,1)p <= 940
 0 <= u(1,3,1)n <= 940
 0 <= u(3,1,1)p <= 940
 0 <= u(3,1,1)n <= 940
 12 <= x(2,1) <= 86
 0 <= y(2,3,1) <= 1
 0 <= y(3,2,1) <= 1
 0 <= v(2,3,1)p <= 79
 0 <= v(2,3,1)n <= 60
 0 <= v(3,2,1)p <= 46
 0 <= v(3,2,1)n <= 93
 0 <= u(2,3,1)p <= 940
 0 <= u(2,3,1)n <= 940
 0 <= u(3,2,1)p <= 940
 0 <= u(3,2,1)n <= 940
 0 <= x(3,1) <= 65
 11 <= x(0,2) <= 81
 0 <= y(0,1,2) <= 1
 0 <= y(1,0,2) <= 1
 0 <= v(0,1,2)p <= 60
 0 <= v(0,1,2)n <= 83
 0 <= v(1,0,2)p <= 69
 0 <= v(1,0,2)n <= 74
 0 <= u(0,1,2)p <= 940
 0 <= u(0,1,2)n <= 940
 0 <= u(1,0,2)p <= 940
 0 <= u(1,0,2)n <= 940
 0 <= y(0,2,2) <= 1
 0 <= y(2,0,2) <= 1
 0 <= v(0,2,2)p <= 69
 0 <= v(0,2,2)n <= 75
 0 <= v(2,0,2)p <= 66
 0 <= v(2,0,2)n <= 78
 0 <= u(0,2,2)p <= 940
 0 <= u(0,2,2)n <= 940
 0 <= u(2,0,2)p <= 940
 0 <= u(2,0,2)n <= 940
 0 <= y(0,3,2) <= 1
 0 <= y(3,0,2) <= 1
 0 <= v(0,3,2)p <= 52
 0 <= v(0,3,2)n <= 83
 0 <= v(3,0,2)p <= 67
 0 <= v(3,0,2)n <= 68
 0 <= u(0,3,2)p <= 940
 0 <= u(0,3,2)n <= 940
 0 <= u(3,0,2)p <= 940
 0 <= u(3,0,2)n <= 940
 13 <= x(1,2) <= 86
 0 <= y(1,2,2) <= 1
 0 <= y(2,1,2) <= 1
 0 <= v(1,2,2)p <= 74
 0 <= v(1,2,2)n <= 73
 0 <= v(2,1,2)p <= 62
 0 <= v(2,1,2)n <= 85
 0 <= u(1,2,2)p <= 940
 0 <= u(1,2,2)n <= 940
 0 <= u(2,1,2)p <= 940
 0 <= u(2,1,2)n <= 940
 0 <= y(1,3,2) <= 1
 0 <= y(3,1,2) <= 1
 0 <= v(1,3,2)p <= 57
 0 <= v(1,3,2)n <= 81
 0 <= v(3,1,2)p <= 63
 0 <= v(3,1,2)n <= 75
 0 <= u(1,3,2)p <= 940
 0 <= u(1,3,2)n <= 940
 0 <= u(3,1,2)p <= 940
 0 <= u(3,1,2)n <= 940
 9 <= x(2,2) <= 83
 0 <= y(2,3,2) <= 1
 0 <= y(3,2,2) <= 1
 0 <= v(2,3,2)p <= 54
 0 <= v(2,3,2)n <= 85
 0 <= v(3,2,2)p <= 72
 0 <= v(3,2,2)n <= 67
 0 <= u(2,3,2)p <= 940
 0 <= u(2,3,2)n <= 940
 0 <= u(3,2,2)p <= 940
 0 <= u(3,2,2)n <= 940
 19 <= x(3,2) <= 84
 10 <= x(0,3) <= 80
 0 <= y(0,1,3) <= 1
 0 <= y(1,0,3) <= 1
 0 <= v(0,1,3)p <= 72
 0 <= v(0,1,3)n <= 71
 0 <= v(1,0,3)p <= 63
 0 <= v(1,0,3)n <= 80
 0 <= u(0,1,3)p <= 940
 0 <= u(0,1,3)n <= 940
 0 <= u(1,0,3)p <= 940
 0 <= u(1,0,3)n <= 940
 0 <= y(0,2,3) <= 1
 0 <= y(2,0,3) <= 1
 0 <= v(0,2,3)p <= 71
 0 <= v(0,2,3)n <= 73
 0 <= v(2,0,3)p <= 63
 0 <= v(2,0,3)n <= 81
 0 <= u(0,2,3)p <= 940
 0 <= u(0,2,3)n <= 940
 0 <= u(2,0,3)p <= 940
 0 <= u(2,0,3)n <= 940
 0 <= y(0,3,3) <= 1
 0 <= y(3,0,3) <= 1
 0 <= v(0,3,3)p <= 70
 0 <= v(0,3,3)n <= 65
 0 <= v(3,0,3)p <= 61
 0 <= v(3,0,3)n <= 74
 0 <= u(0,3,3)p <= 940
 0 <= u(0,3,3)n <= 940
 0 <= u(3,0,3)p <= 940
 0 <= u(3,0,3)n <= 940
 1 <= x(1,3) <= 74
 0 <= y(1,2,3) <= 1
 0 <= y(2,1,3) <= 1
 0 <= v(1,2,3)p <= 65
 0 <= v(1,2,3)n <= 82
 0 <= v(2,1,3)p <= 66
 0 <= v(2,1,3)n <= 81
 0 <= u(1,2,3)p <= 940
 0 <= u(1,2,3)n <= 940
 0 <= u(2,1,3)p <= 940
 0 <= u(2,1,3)n <= 940
 0 <= y(1,3,3) <= 1
 0 <= y(3,1,3) <= 1
 0 <= v(1,3,3)p <= 64
 0 <= v(1,3,3)n <= 74
 0 <= v(3,1,3)p <= 64
 0 <= v(3,1,3)n <= 74
 0 <= u(1,3,3)p <= 940
 0 <= u(1,3,3)n <= 940
 0 <= u(3,1,3)p <= 940
 0 <= u(3,1,3)n <= 940
 0 <= x(2,3) <= 74
 0 <= y(2,3,3) <= 1
 0 <= y(3,2,3) <= 1
 0 <= v(2,3,3)p <= 64
 0 <= v(2,3,3)n <= 75
 0 <= v(3,2,3)p <= 63
 0 <= v(3,2,3)n <= 76
 0 <= u(2,3,3)p <= 940
 0 <= u(2,3,3)n <= 940
 0 <= u(3,2,3)p <= 940
 0 <= u(3,2,3)n <= 940
 7 <= x(3,3) <= 72
End
